language Essence 1.3

letting blksize_delta be
        function(1 --> 10, 2 --> 10, 3 --> 10, 4 --> 10, 5 --> 10, 6 --> 10, 7 --> 10, 8 --> 10, 9 --> 10, 10 --> 10,
                 11 --> 10, 12 --> 10, 13 --> 10, 14 --> 10, 15 --> 10, 16 --> 10, 17 --> 10, 18 --> 10, 19 --> 10,
                 20 --> 10, 21 --> 10, 22 --> 10, 23 --> 10, 24 --> 10, 25 --> 10, 26 --> 10, 27 --> 10, 28 --> 10,
                 29 --> 10, 30 --> 10, 31 --> 10, 32 --> 10, 33 --> 10)
letting maxcars be
        function(1 --> 9, 2 --> 9, 3 --> 9, 4 --> 9, 5 --> 9, 6 --> 9, 7 --> 9, 8 --> 9, 9 --> 9, 10 --> 9, 11 --> 9,
                 12 --> 9, 13 --> 9, 14 --> 9, 15 --> 10, 16 --> 9, 17 --> 9, 18 --> 9, 19 --> 9, 20 --> 9, 21 --> 9,
                 22 --> 9, 23 --> 9, 24 --> 9, 25 --> 10, 26 --> 9, 27 --> 9, 28 --> 9, 29 --> 9, 30 --> 10, 31 --> 9,
                 32 --> 10, 33 --> 9)
letting n_cars be 235
letting n_classes be 36
letting n_options be 33
letting quantity be
        function(1 --> 5, 2 --> 5, 3 --> 5, 4 --> 5, 5 --> 5, 6 --> 5, 7 --> 5, 8 --> 14, 9 --> 5, 10 --> 5, 11 --> 5,
                 12 --> 5, 13 --> 5, 14 --> 5, 15 --> 5, 16 --> 5, 17 --> 5, 18 --> 5, 19 --> 5, 20 --> 5, 21 --> 5,
                 22 --> 5, 23 --> 5, 24 --> 5, 25 --> 5, 26 --> 5, 27 --> 5, 28 --> 5, 29 --> 12, 30 --> 13, 31 --> 18,
                 32 --> 18, 33 --> 5, 34 --> 5, 35 --> 5, 36 --> 10)
letting usage be
        relation((1, 1), (1, 6), (1, 16), (1, 18), (2, 12), (3, 33), (4, 8), (4, 19), (5, 24), (5, 26), (5, 30),
                 (6, 11), (6, 20), (7, 13), (7, 16), (7, 28), (8, 1), (8, 6), (8, 17), (9, 9), (9, 11), (9, 12),
                 (9, 25), (10, 7), (10, 16), (10, 20), (10, 27), (11, 13), (11, 18), (12, 23), (13, 8), (13, 10),
                 (13, 20), (13, 21), (13, 23), (13, 24), (13, 31), (14, 23), (15, 9), (15, 10), (15, 12), (16, 33),
                 (17, 5), (17, 18), (18, 17), (18, 20), (19, 6), (19, 8), (19, 12), (20, 2), (20, 3), (20, 11), (21, 3),
                 (21, 7), (21, 21), (22, 24), (23, 17), (24, 3), (24, 25), (24, 26), (24, 31), (25, 6), (25, 21),
                 (25, 25), (25, 28), (26, 16), (26, 20), (26, 27), (26, 28), (26, 31), (27, 3), (27, 31), (28, 20),
                 (28, 21), (28, 24), (28, 30), (29, 10), (29, 15), (29, 17), (29, 20), (30, 22), (30, 29), (31, 2),
                 (31, 4), (31, 11), (31, 15), (31, 16), (31, 21), (31, 29), (32, 5), (32, 6), (32, 16), (33, 12),
                 (33, 13), (34, 8), (35, 32), (36, 14))
$ Visualisation for usage
$  1  1
$  1  6
$  1 16
$  1 18
$  2 12
$  3 33
$  4  8
$  4 19
$  5 24
$  5 26
$  5 30
$  6 11
$  6 20
$  7 13
$  7 16
$  7 28
$  8  1
$  8  6
$  8 17
$  9  9
$  9 11
$  9 12
$  9 25
$ 10  7
$ 10 16
$ 10 20
$ 10 27
$ 11 13
$ 11 18
$ 12 23
$ 13  8
$ 13 10
$ 13 20
$ 13 21
$ 13 23
$ 13 24
$ 13 31
$ 14 23
$ 15  9
$ 15 10
$ 15 12
$ 16 33
$ 17  5
$ 17 18
$ 18 17
$ 18 20
$ 19  6
$ 19  8
$ 19 12
$ 20  2
$ 20  3
$ 20 11
$ 21  3
$ 21  7
$ 21 21
$ 22 24
$ 23 17
$ 24  3
$ 24 25
$ 24 26
$ 24 31
$ 25  6
$ 25 21
$ 25 25
$ 25 28
$ 26 16
$ 26 20
$ 26 27
$ 26 28
$ 26 31
$ 27  3
$ 27 31
$ 28 20
$ 28 21
$ 28 24
$ 28 30
$ 29 10
$ 29 15
$ 29 17
$ 29 20
$ 30 22
$ 30 29
$ 31  2
$ 31  4
$ 31 11
$ 31 15
$ 31 16
$ 31 21
$ 31 29
$ 32  5
$ 32  6
$ 32 16
$ 33 12
$ 33 13
$ 34  8
$ 35 32
$ 36 14

